(declare-const c Real)
(declare-const d Real)
(declare-const a Real)
(declare-const b Real)
(assert (= (+ (+ (+ a b) c) d) 1))
(assert (and (>= a b) (and (>= b c) (>= c d))))
(assert (and (< 0 a) (and (< 0 b) (and (< 0 c) (< 0 d)))))
(assert (not (>= (* (* (* (* (+ (+ (+ a (* 2 b)) (* 3 c)) (* 4 d)) (^ a a)) (^ b b)) (^ c c)) (^ d d)) 1)))
(check-sat)
(get-model)
(exit)